
Gurobi 11.0.1 (win64) logging started Wed May 15 14:46:21 2024

Set parameter LogFile to value "output/solver_log2.txt"
Gurobi Optimizer version 11.0.1 build v11.0.1rc0 (win64 - Windows 11.0 (22631.2))

CPU model: 11th Gen Intel(R) Core(TM) i7-1165G7 @ 2.80GHz, instruction set [SSE2|AVX|AVX2|AVX512]
Thread count: 4 physical cores, 8 logical processors, using up to 8 threads

Optimize a model with 3068 rows, 824 columns and 58994 nonzeros
Model fingerprint: 0x036f7eca
Variable types: 248 continuous, 576 integer (576 binary)
Coefficient statistics:
  Matrix range     [4e-01, 1e+05]
  Objective range  [1e+00, 1e+02]
  Bounds range     [1e+00, 1e+00]
  RHS range        [1e-02, 1e+05]

User MIP start produced solution with objective 39671.2 (0.01s)
User MIP start produced solution with objective 39671.2 (0.01s)
Loaded user MIP start with objective 39671.2

Presolve removed 395 rows and 305 columns
Presolve time: 0.06s
Presolved: 2673 rows, 519 columns, 52998 nonzeros
Variable types: 234 continuous, 285 integer (281 binary)

Root relaxation: objective 5.085809e+04, 992 iterations, 0.06 seconds (0.13 work units)

    Nodes    |    Current Node    |     Objective Bounds      |     Work
 Expl Unexpl |  Obj  Depth IntInf | Incumbent    BestBd   Gap | It/Node Time

     0     0 50858.0921    0   42 39671.2132 50858.0921  28.2%     -    0s
     0     0 50616.7291    0   60 39671.2132 50616.7291  27.6%     -    0s
     0     0 50269.9018    0   57 39671.2132 50269.9018  26.7%     -    0s
     0     0 50265.8222    0   81 39671.2132 50265.8222  26.7%     -    0s
     0     0 50265.8222    0   81 39671.2132 50265.8222  26.7%     -    0s
     0     0 48984.2580    0   88 39671.2132 48984.2580  23.5%     -    1s
     0     0 48971.9374    0   73 39671.2132 48971.9374  23.4%     -    1s
     0     0 46175.3741    0   78 39671.2132 46175.3741  16.4%     -    1s
     0     0 46175.3741    0   78 39671.2132 46175.3741  16.4%     -    1s
     0     0 46175.3741    0   77 39671.2132 46175.3741  16.4%     -    1s
     0     0 46164.9764    0   77 39671.2132 46164.9764  16.4%     -    1s
     0     0 45772.4885    0   69 39671.2132 45772.4885  15.4%     -    1s
     0     0 45749.8893    0   77 39671.2132 45749.8893  15.3%     -    2s
     0     0 45749.8893    0   81 39671.2132 45749.8893  15.3%     -    2s
     0     0 45702.1042    0   69 39671.2132 45702.1042  15.2%     -    2s
     0     0 45702.1042    0   82 39671.2132 45702.1042  15.2%     -    2s
     0     0 45702.1042    0   72 39671.2132 45702.1042  15.2%     -    2s
     0     0 45702.1042    0   72 39671.2132 45702.1042  15.2%     -    2s
     0     0 45646.2280    0   82 39671.2132 45646.2280  15.1%     -    2s
     0     0 45646.2280    0   79 39671.2132 45646.2280  15.1%     -    2s
     0     0 45638.3024    0   91 39671.2132 45638.3024  15.0%     -    2s
     0     0 45638.3024    0   91 39671.2132 45638.3024  15.0%     -    2s
     0     2 45638.3024    0   91 39671.2132 45638.3024  15.0%     -    2s
    37    27 45345.5316    7   61 39671.2132 45638.3024  15.0%   937    5s
H  250   120                    39710.276276 43246.8619  8.91%   350    7s
H  324   178                    39710.604361 42378.8995  6.72%   281    7s
H  330   178                    39714.168140 42378.8995  6.71%   277    7s
H  384   199                    39715.644525 42378.8995  6.71%   247    7s
   920   704 39737.1153   19   45 39715.6445 39737.1183  0.05%   129   12s
H 1273   642                    39723.767646 39737.1183  0.03%   100   12s
H 1274   608                    39728.145889 39737.1183  0.02%   100   12s
H 1730   998                    39728.264820 39737.1183  0.02%  83.5   12s
  2891  1434 39737.0149   21   91 39728.2648 39737.1183  0.02%  64.2   15s
  2986  1446     cutoff   18      39728.2648 39737.1183  0.02%  83.3   20s
  5184  1709 infeasible   44      39728.2648 39736.2369  0.02%  66.7   25s
H 6548  1637                    39728.486623 39736.2369  0.02%  65.5   28s
  7120  1820 39729.1850   57   37 39728.4866 39736.2369  0.02%  63.4   30s
 10063  2989 infeasible   66      39728.4866 39736.2369  0.02%  59.2   35s
 11396  3452 39730.0145   94   11 39728.4866 39736.2368  0.02%  58.2   40s
H11785  3387                    39728.755381 39736.2368  0.02%  58.1   40s
 13543  4291 39736.2349   38   66 39728.7554 39736.2368  0.02%  57.1   45s
 17115  5511 39732.2430   49   37 39728.7554 39736.2368  0.02%  55.9   50s
 21188  6992 39736.2365   38   61 39728.7554 39736.2368  0.02%  53.6   55s
 25052  7900 infeasible   47      39728.7554 39736.2368  0.02%  52.7   60s

Cutting planes:
  Implied bound: 1
  MIR: 17
  RLT: 5
  Relax-and-lift: 1

Explored 25057 nodes (1335354 simplex iterations) in 60.02 seconds (141.26 work units)
Thread count was 8 (of 8 available processors)

Solution count 10: 39728.8 39728.5 39728.3 ... 39671.2

Time limit reached
Best objective 3.972875538105e+04, best bound 3.973623677594e+04, gap 0.0188%
